<number of tasks>
70

<cycle time>
468

<task times>
1 17
2 66
3 54
4 52
5 6
6 88
7 21
8 128
9 68
10 70
11 85
12 21
13 134
14 135
15 94
16 90
17 50
18 143
19 19
20 54
21 50
22 40
23 73
24 12
25 152
26 42
27 45
28 74
29 26
30 11
31 31
32 50
33 102
34 46
35 35
36 40
37 2
38 1
39 3
40 13
41 16
42 25
43 21
44 43
45 30
46 83
47 89
48 56
49 59
50 43
51 11
52 26
53 44
54 121
55 38
56 68
57 22
58 7
59 16
60 32
61 25
62 27
63 156
64 28
65 15
66 26
67 18
68 72
69 23
70 27

<precedence relations>
1,2
1,41
1,69
1,70
2,3
3,4
3,68
4,6
4,7
5,6
5,24
5,30
6,8
7,8
8,12
9,10
10,11
11,12
12,13
12,14
13,23
14,23
15,16
16,17
16,18
17,19
18,19
19,20
19,22
19,57
20,21
21,23
22,23
23,25
23,31
23,33
24,25
25,26
25,27
25,28
25,29
26,35
27,35
28,35
29,35
30,31
31,32
32,35
33,34
34,35
35,36
35,44
35,48
35,51
35,53
35,56
35,60
35,61
35,62
36,37
37,38
38,39
39,40
40,42
41,42
42,43
43,50
44,45
45,46
46,47
47,50
48,49
49,50
51,52
52,54
53,54
54,55
57,58
58,59
59,60
61,65
62,63
63,64
64,65
64,66
64,67

<setup times forward>
1,10:10
1,11:10
1,16:10
1,17:10
1,18:4
1,19:4
1,20:4
1,21:4
1,22:4
1,24:10
1,30:10
1,41:4
1,69:9
1,70:9
2,10:10
2,11:10
2,16:10
2,17:10
2,18:4
2,19:4
2,20:4
2,21:4
2,22:4
2,24:10
2,30:10
2,41:4
2,69:9
2,70:9
3,10:10
3,11:10
3,16:10
3,17:10
3,18:4
3,19:4
3,20:4
3,21:4
3,22:4
3,24:10
3,30:10
3,41:4
3,69:9
3,70:9
4,10:10
4,11:10
4,16:10
4,17:10
4,18:4
4,19:4
4,20:4
4,21:4
4,22:4
4,24:10
4,30:10
4,41:4
4,69:9
4,70:9
5,10:10
5,11:10
5,16:10
5,17:10
5,18:4
5,19:4
5,20:4
5,21:4
5,22:4
5,24:10
5,30:10
5,41:4
5,69:9
5,70:9
6,8:10
6,10:10
6,11:10
6,16:10
6,17:10
6,18:4
6,19:4
6,20:4
6,21:4
6,22:4
6,24:10
6,30:10
6,41:4
6,69:9
6,70:9
7,8:10
7,10:10
7,11:10
7,16:10
7,17:10
7,18:4
7,19:4
7,20:4
7,21:4
7,22:4
7,24:10
7,30:10
7,41:4
7,69:9
7,70:9
8,9:10
8,15:10
8,18:14
8,19:14
8,20:6
8,21:6
8,22:6
8,41:14
8,57:10
8,58:10
8,59:10
8,68:10
8,69:19
8,70:19
9,8:10
9,10:10
9,16:10
9,17:10
9,18:4
9,19:4
9,20:4
9,21:4
9,22:4
9,24:10
9,30:10
9,41:4
9,69:9
9,70:9
10,1:10
10,2:10
10,3:10
10,4:10
10,5:10
10,6:10
10,7:10
10,15:10
10,18:14
10,19:14
10,20:6
10,21:6
10,22:6
10,41:14
10,57:10
10,58:10
10,59:10
10,68:10
10,69:19
10,70:19
11,1:10
11,2:10
11,3:10
11,4:10
11,5:10
11,6:10
11,7:10
11,15:10
11,18:14
11,19:14
11,20:6
11,21:6
11,22:6
11,41:14
11,57:10
11,58:10
11,59:10
11,68:10
11,69:19
11,70:19
12,13:14
12,14:14
12,15:10
12,18:14
12,19:14
12,20:6
12,21:6
12,22:6
12,41:14
12,57:10
12,58:10
12,59:10
12,68:10
12,69:19
12,70:19
13,15:4
13,16:14
13,17:14
13,20:8
13,21:8
13,22:8
13,23:8
13,24:14
13,30:14
13,57:4
13,58:4
13,59:4
13,68:4
13,69:5
13,70:5
14,15:4
14,16:14
14,17:14
14,20:8
14,21:8
14,22:8
14,23:8
14,24:14
14,30:14
14,57:4
14,58:4
14,59:4
14,68:4
14,69:5
14,70:5
15,8:10
15,10:10
15,11:10
15,12:10
15,13:4
15,14:4
15,16:10
15,24:10
15,30:10
15,41:4
15,69:9
15,70:9
16,1:10
16,2:10
16,3:10
16,4:10
16,5:10
16,6:10
16,7:10
16,9:10
16,13:14
16,14:14
16,18:14
16,41:14
16,68:10
16,69:19
16,70:19
17,1:10
17,2:10
17,3:10
17,4:10
17,5:10
17,6:10
17,7:10
17,9:10
17,13:14
17,14:14
17,18:14
17,19:14
17,41:14
17,68:10
17,69:19
17,70:19
18,1:4
18,2:4
18,3:4
18,4:4
18,5:4
18,6:4
18,7:4
18,8:14
18,9:4
18,10:14
18,11:14
18,12:14
18,17:14
18,24:14
18,30:14
18,68:4
18,69:5
18,70:5
19,1:4
19,2:4
19,3:4
19,4:4
19,5:4
19,6:4
19,7:4
19,8:14
19,9:4
19,10:14
19,11:14
19,12:14
19,20:8
19,22:8
19,24:14
19,30:14
19,57:4
19,68:4
19,69:5
19,70:5
20,1:4
20,2:4
20,3:4
20,4:4
20,5:4
20,6:4
20,7:4
20,8:6
20,9:4
20,10:6
20,11:6
20,12:6
20,13:8
20,14:8
20,24:6
20,30:6
20,41:8
20,57:4
20,58:4
20,59:4
20,68:4
20,69:13
20,70:13
21,1:4
21,2:4
21,3:4
21,4:4
21,5:4
21,6:4
21,7:4
21,8:6
21,9:4
21,10:6
21,11:6
21,12:6
21,13:8
21,14:8
21,24:6
21,30:6
21,41:8
21,57:4
21,58:4
21,59:4
21,68:4
21,69:13
21,70:13
22,1:4
22,2:4
22,3:4
22,4:4
22,5:4
22,6:4
22,7:4
22,8:6
22,9:4
22,10:6
22,11:6
22,12:6
22,13:8
22,14:8
22,24:6
22,30:6
22,41:8
22,57:4
22,58:4
22,59:4
22,68:4
22,69:13
22,70:13
23,24:6
23,30:6
23,33:1
23,41:8
23,57:4
23,58:4
23,59:4
23,68:4
23,69:13
23,70:13
24,1:10
24,2:10
24,3:10
24,4:10
24,6:10
24,7:10
24,9:10
24,13:14
24,14:14
24,15:10
24,18:14
24,19:14
24,20:6
24,21:6
24,22:6
24,23:6
24,25:6
24,31:6
24,32:6
24,33:7
24,34:7
24,41:14
24,57:10
24,58:10
24,59:10
24,68:10
24,69:19
24,70:19
25,26:1
25,27:1
25,28:1
25,29:1
25,30:6
25,33:1
25,34:1
25,41:8
25,57:4
25,58:4
25,59:4
25,68:4
25,69:13
25,70:13
26,30:7
26,31:1
26,32:1
26,41:7
26,57:3
26,58:3
26,59:3
26,68:3
26,69:12
26,70:12
27,30:7
27,31:1
27,32:1
27,41:7
27,57:3
27,58:3
27,59:3
27,68:3
27,69:12
27,70:12
28,30:7
28,31:1
28,32:1
28,41:7
28,57:3
28,58:3
28,59:3
28,68:3
28,69:12
28,70:12
29,30:7
29,31:1
29,32:1
29,41:7
29,57:3
29,58:3
29,59:3
29,68:3
29,69:12
29,70:12
30,1:10
30,2:10
30,3:10
30,4:10
30,6:10
30,7:10
30,9:10
30,13:14
30,14:14
30,15:10
30,18:14
30,19:14
30,20:6
30,21:6
30,22:6
30,23:6
30,25:6
30,26:7
30,27:7
30,28:7
30,29:7
30,31:6
30,33:7
30,34:7
30,41:14
30,57:10
30,58:10
30,59:10
30,68:10
30,69:19
30,70:19
31,24:6
31,26:1
31,27:1
31,28:1
31,29:1
31,33:1
31,34:1
31,41:8
31,57:4
31,58:4
31,59:4
31,68:4
31,69:13
31,70:13
32,24:6
32,26:1
32,27:1
32,28:1
32,29:1
32,33:1
32,34:1
32,35:1
32,41:8
32,57:4
32,58:4
32,59:4
32,68:4
32,69:13
32,70:13
33,24:7
33,25:1
33,30:7
33,31:1
33,32:1
33,41:7
33,57:3
33,58:3
33,59:3
33,68:3
33,69:12
33,70:12
34,24:7
34,25:1
34,30:7
34,31:1
34,32:1
34,41:7
34,57:3
34,58:3
34,59:3
34,68:3
34,69:12
34,70:12
35,36:3
35,41:7
35,48:3
35,53:8
35,56:12
35,57:3
35,58:3
35,59:3
35,60:12
35,61:12
35,68:3
35,69:12
35,70:12
36,41:4
36,44:3
36,45:5
36,46:5
36,51:3
36,52:5
36,53:5
36,54:5
36,55:9
36,56:9
36,60:9
36,61:9
36,62:3
36,63:5
36,65:9
36,66:9
36,67:9
36,69:9
36,70:9
37,41:4
37,44:3
37,45:5
37,46:5
37,51:3
37,52:5
37,53:5
37,54:5
37,55:9
37,56:9
37,60:9
37,61:9
37,62:3
37,63:5
37,65:9
37,66:9
37,67:9
37,69:9
37,70:9
38,41:4
38,44:3
38,45:5
38,46:5
38,51:3
38,52:5
38,53:5
38,54:5
38,55:9
38,56:9
38,60:9
38,61:9
38,62:3
38,63:5
38,65:9
38,66:9
38,67:9
38,69:9
38,70:9
39,41:4
39,44:3
39,45:5
39,46:5
39,51:3
39,52:5
39,53:5
39,54:5
39,55:9
39,56:9
39,60:9
39,61:9
39,62:3
39,63:5
39,65:9
39,66:9
39,67:9
39,69:9
39,70:9
40,41:4
40,44:3
40,45:5
40,46:5
40,51:3
40,52:5
40,53:5
40,54:5
40,55:9
40,56:9
40,60:9
40,61:9
40,62:3
40,63:5
40,65:9
40,66:9
40,67:9
40,69:9
40,70:9
41,2:4
41,3:4
41,4:4
41,5:4
41,6:4
41,7:4
41,8:14
41,9:4
41,10:14
41,11:14
41,12:14
41,15:4
41,16:14
41,17:14
41,20:8
41,21:8
41,22:8
41,23:8
41,24:14
41,25:8
41,26:7
41,27:7
41,28:7
41,29:7
41,30:14
41,31:8
41,32:8
41,33:7
41,34:7
41,35:7
41,36:4
41,37:4
41,38:4
41,39:4
41,40:4
41,42:4
41,44:7
41,45:1
41,46:1
41,47:4
41,48:4
41,49:4
41,51:7
41,52:1
41,53:1
41,54:1
41,55:5
41,56:5
41,57:4
41,58:4
41,59:4
41,60:5
41,61:5
41,62:7
41,63:1
41,64:4
41,65:5
41,66:5
41,67:5
41,68:4
41,69:5
41,70:5
42,44:3
42,45:5
42,46:5
42,51:3
42,52:5
42,53:5
42,54:5
42,55:9
42,56:9
42,60:9
42,61:9
42,62:3
42,63:5
42,65:9
42,66:9
42,67:9
42,69:9
42,70:9
43,44:3
43,45:5
43,46:5
43,50:9
43,51:3
43,52:5
43,53:5
43,54:5
43,55:9
43,56:9
43,60:9
43,61:9
43,62:3
43,63:5
43,65:9
43,66:9
43,67:9
43,69:9
43,70:9
44,36:3
44,37:3
44,38:3
44,39:3
44,40:3
44,41:7
44,42:3
44,43:3
44,45:8
44,48:3
44,49:3
44,52:8
44,53:8
44,54:8
44,55:12
44,56:12
44,57:3
44,58:3
44,59:3
44,60:12
44,61:12
44,63:8
44,64:3
44,65:12
44,66:12
44,67:12
44,68:3
44,69:12
44,70:12
45,36:5
45,37:5
45,38:5
45,39:5
45,40:5
45,41:1
45,42:5
45,43:5
45,48:5
45,49:5
45,51:8
45,55:4
45,56:4
45,57:5
45,58:5
45,59:5
45,60:4
45,61:4
45,62:8
45,64:5
45,65:4
45,66:4
45,67:4
45,68:5
45,69:4
45,70:4
46,36:5
46,37:5
46,38:5
46,39:5
46,40:5
46,41:1
46,42:5
46,43:5
46,47:5
46,48:5
46,49:5
46,51:8
46,55:4
46,56:4
46,57:5
46,58:5
46,59:5
46,60:4
46,61:4
46,62:8
46,64:5
46,65:4
46,66:4
46,67:4
46,68:5
46,69:4
46,70:4
47,41:4
47,50:9
47,51:3
47,52:5
47,53:5
47,54:5
47,55:9
47,56:9
47,60:9
47,61:9
47,62:3
47,63:5
47,65:9
47,66:9
47,67:9
47,69:9
47,70:9
48,41:4
48,44:3
48,45:5
48,46:5
48,51:3
48,52:5
48,53:5
48,54:5
48,55:9
48,56:9
48,60:9
48,61:9
48,62:3
48,63:5
48,65:9
48,66:9
48,67:9
48,69:9
48,70:9
49,41:4
49,44:3
49,45:5
49,46:5
49,50:9
49,51:3
49,52:5
49,53:5
49,54:5
49,55:9
49,56:9
49,60:9
49,61:9
49,62:3
49,63:5
49,65:9
49,66:9
49,67:9
49,69:9
49,70:9
50,51:12
50,52:4
50,53:4
50,54:4
50,57:9
50,58:9
50,59:9
50,62:12
50,63:4
50,64:9
50,68:9
51,36:3
51,37:3
51,38:3
51,39:3
51,40:3
51,41:7
51,42:3
51,43:3
51,45:8
51,46:8
51,47:3
51,48:3
51,49:3
51,50:12
51,52:8
51,53:8
51,56:12
51,57:3
51,58:3
51,59:3
51,60:12
51,61:12
51,63:8
51,64:3
51,65:12
51,66:12
51,67:12
51,68:3
51,69:12
51,70:12
52,36:5
52,37:5
52,38:5
52,39:5
52,40:5
52,41:1
52,42:5
52,43:5
52,44:8
52,47:5
52,48:5
52,49:5
52,50:4
52,56:4
52,57:5
52,58:5
52,59:5
52,60:4
52,61:4
52,62:8
52,64:5
52,65:4
52,66:4
52,67:4
52,68:5
52,69:4
52,70:4
53,36:5
53,37:5
53,38:5
53,39:5
53,40:5
53,41:1
53,42:5
53,43:5
53,44:8
53,47:5
53,48:5
53,49:5
53,50:4
53,51:8
53,56:4
53,57:5
53,58:5
53,59:5
53,60:4
53,61:4
53,62:8
53,64:5
53,65:4
53,66:4
53,67:4
53,68:5
53,69:4
53,70:4
54,36:5
54,37:5
54,38:5
54,39:5
54,40:5
54,41:1
54,42:5
54,43:5
54,44:8
54,47:5
54,48:5
54,49:5
54,50:4
54,55:4
54,56:4
54,57:5
54,58:5
54,59:5
54,60:4
54,61:4
54,62:8
54,64:5
54,65:4
54,66:4
54,67:4
54,68:5
54,69:4
54,70:4
55,36:9
55,37:9
55,38:9
55,39:9
55,40:9
55,41:5
55,42:9
55,43:9
55,44:12
55,45:4
55,46:4
55,47:9
55,48:9
55,49:9
55,57:9
55,58:9
55,59:9
55,62:12
55,63:4
55,64:9
55,68:9
56,36:9
56,37:9
56,38:9
56,39:9
56,40:9
56,41:5
56,42:9
56,43:9
56,44:12
56,45:4
56,46:4
56,47:9
56,48:9
56,49:9
56,51:12
56,52:4
56,53:4
56,54:4
56,57:9
56,58:9
56,59:9
56,62:12
56,63:4
56,64:9
56,68:9
57,8:10
57,10:10
57,11:10
57,12:10
57,13:4
57,14:4
57,20:4
57,21:4
57,22:4
57,23:4
57,24:10
57,25:4
57,26:3
57,27:3
57,28:3
57,29:3
57,30:10
57,31:4
57,32:4
57,33:3
57,34:3
57,35:3
57,41:4
57,44:3
57,45:5
57,46:5
57,50:9
57,51:3
57,52:5
57,53:5
57,54:5
57,55:9
57,56:9
57,61:9
57,62:3
57,63:5
57,65:9
57,66:9
57,67:9
57,69:9
57,70:9
58,8:10
58,10:10
58,11:10
58,12:10
58,13:4
58,14:4
58,20:4
58,21:4
58,22:4
58,23:4
58,24:10
58,25:4
58,26:3
58,27:3
58,28:3
58,29:3
58,30:10
58,31:4
58,32:4
58,33:3
58,34:3
58,35:3
58,41:4
58,44:3
58,45:5
58,46:5
58,50:9
58,51:3
58,52:5
58,53:5
58,54:5
58,55:9
58,56:9
58,61:9
58,62:3
58,63:5
58,65:9
58,66:9
58,67:9
58,69:9
58,70:9
59,8:10
59,10:10
59,11:10
59,12:10
59,13:4
59,14:4
59,20:4
59,21:4
59,22:4
59,23:4
59,24:10
59,25:4
59,26:3
59,27:3
59,28:3
59,29:3
59,30:10
59,31:4
59,32:4
59,33:3
59,34:3
59,35:3
59,41:4
59,44:3
59,45:5
59,46:5
59,50:9
59,51:3
59,52:5
59,53:5
59,54:5
59,55:9
59,56:9
59,60:9
59,61:9
59,62:3
59,63:5
59,65:9
59,66:9
59,67:9
59,69:9
59,70:9
60,36:9
60,37:9
60,38:9
60,39:9
60,40:9
60,41:5
60,42:9
60,43:9
60,44:12
60,45:4
60,46:4
60,47:9
60,48:9
60,49:9
60,51:12
60,52:4
60,53:4
60,54:4
60,62:12
60,63:4
60,64:9
60,68:9
61,36:9
61,37:9
61,38:9
61,39:9
61,40:9
61,41:5
61,42:9
61,43:9
61,44:12
61,45:4
61,46:4
61,47:9
61,48:9
61,49:9
61,51:12
61,52:4
61,53:4
61,54:4
61,57:9
61,58:9
61,59:9
61,62:12
61,63:4
61,64:9
61,68:9
62,36:3
62,37:3
62,38:3
62,39:3
62,40:3
62,41:7
62,42:3
62,43:3
62,45:8
62,46:8
62,47:3
62,48:3
62,49:3
62,50:12
62,52:8
62,53:8
62,54:8
62,55:12
62,56:12
62,57:3
62,58:3
62,59:3
62,60:12
62,61:12
62,63:8
62,68:3
62,69:12
62,70:12
63,36:5
63,37:5
63,38:5
63,39:5
63,40:5
63,41:1
63,42:5
63,43:5
63,44:8
63,47:5
63,48:5
63,49:5
63,50:4
63,51:8
63,55:4
63,56:4
63,57:5
63,58:5
63,59:5
63,60:4
63,61:4
63,64:5
63,68:5
63,69:4
63,70:4
64,41:4
64,44:3
64,45:5
64,46:5
64,50:9
64,51:3
64,52:5
64,53:5
64,54:5
64,55:9
64,56:9
64,60:9
64,61:9
64,65:9
64,66:9
64,67:9
64,69:9
64,70:9
65,36:9
65,37:9
65,38:9
65,39:9
65,40:9
65,41:5
65,42:9
65,43:9
65,44:12
65,45:4
65,46:4
65,47:9
65,48:9
65,49:9
65,51:12
65,52:4
65,53:4
65,54:4
65,57:9
65,58:9
65,59:9
65,68:9
66,36:9
66,37:9
66,38:9
66,39:9
66,40:9
66,41:5
66,42:9
66,43:9
66,44:12
66,45:4
66,46:4
66,47:9
66,48:9
66,49:9
66,51:12
66,52:4
66,53:4
66,54:4
66,57:9
66,58:9
66,59:9
66,68:9
67,36:9
67,37:9
67,38:9
67,39:9
67,40:9
67,41:5
67,42:9
67,43:9
67,44:12
67,45:4
67,46:4
67,47:9
67,48:9
67,49:9
67,51:12
67,52:4
67,53:4
67,54:4
67,57:9
67,58:9
67,59:9
67,68:9
68,8:10
68,10:10
68,11:10
68,12:10
68,13:4
68,14:4
68,16:10
68,17:10
68,18:4
68,19:4
68,20:4
68,21:4
68,22:4
68,23:4
68,24:10
68,25:4
68,26:3
68,27:3
68,28:3
68,29:3
68,30:10
68,31:4
68,32:4
68,33:3
68,34:3
68,35:3
68,41:4
68,44:3
68,45:5
68,46:5
68,50:9
68,51:3
68,52:5
68,53:5
68,54:5
68,55:9
68,56:9
68,60:9
68,61:9
68,62:3
68,63:5
68,65:9
68,66:9
68,67:9
68,69:9
68,70:9
69,2:9
69,3:9
69,4:9
69,5:9
69,6:9
69,7:9
69,8:19
69,9:9
69,10:19
69,11:19
69,12:19
69,13:5
69,14:5
69,15:9
69,16:19
69,17:19
69,18:5
69,19:5
69,20:13
69,21:13
69,22:13
69,23:13
69,24:19
69,25:13
69,26:12
69,27:12
69,28:12
69,29:12
69,30:19
69,31:13
69,32:13
69,33:12
69,34:12
69,35:12
69,36:9
69,37:9
69,38:9
69,39:9
69,40:9
69,41:5
69,42:9
69,43:9
69,44:12
69,45:4
69,46:4
69,47:9
69,48:9
69,49:9
69,51:12
69,52:4
69,53:4
69,54:4
69,57:9
69,58:9
69,59:9
69,62:12
69,63:4
69,64:9
69,68:9
70,2:9
70,3:9
70,4:9
70,5:9
70,6:9
70,7:9
70,8:19
70,9:9
70,10:19
70,11:19
70,12:19
70,13:5
70,14:5
70,15:9
70,16:19
70,17:19
70,18:5
70,19:5
70,20:13
70,21:13
70,22:13
70,23:13
70,24:19
70,25:13
70,26:12
70,27:12
70,28:12
70,29:12
70,30:19
70,31:13
70,32:13
70,33:12
70,34:12
70,35:12
70,36:9
70,37:9
70,38:9
70,39:9
70,40:9
70,41:5
70,42:9
70,43:9
70,44:12
70,45:4
70,46:4
70,47:9
70,48:9
70,49:9
70,51:12
70,52:4
70,53:4
70,54:4
70,57:9
70,58:9
70,59:9
70,62:12
70,63:4
70,64:9
70,68:9

<setup times backward>
1,1:1
1,5:1
1,9:1
1,15:1
1,18:5
1,19:5
1,57:1
1,58:1
1,59:1
2,1:1
2,2:1
2,5:1
2,9:1
2,15:1
2,18:5
2,19:5
2,41:5
2,57:1
2,58:1
2,59:1
2,69:10
2,70:10
3,1:1
3,2:1
3,3:1
3,5:1
3,9:1
3,15:1
3,18:5
3,19:5
3,41:5
3,57:1
3,58:1
3,59:1
3,69:10
3,70:10
4,1:1
4,2:1
4,3:1
4,4:1
4,5:1
4,9:1
4,15:1
4,18:5
4,19:5
4,41:5
4,57:1
4,58:1
4,59:1
4,68:1
4,69:10
4,70:10
5,1:1
5,2:1
5,3:1
5,4:1
5,5:1
5,7:1
5,9:1
5,15:1
5,18:5
5,19:5
5,41:5
5,57:1
5,58:1
5,59:1
5,68:1
5,69:10
5,70:10
6,1:1
6,2:1
6,3:1
6,4:1
6,5:1
6,6:1
6,7:1
6,9:1
6,15:1
6,18:5
6,19:5
6,41:5
6,57:1
6,58:1
6,59:1
6,68:1
6,69:10
6,70:10
7,1:1
7,2:1
7,3:1
7,4:1
7,5:1
7,6:1
7,7:1
7,9:1
7,15:1
7,18:5
7,19:5
7,41:5
7,57:1
7,58:1
7,59:1
7,68:1
7,69:10
7,70:10
8,1:11
8,2:11
8,3:11
8,4:11
8,5:11
8,6:11
8,7:11
8,8:1
8,9:11
8,10:1
8,11:1
8,15:11
8,16:1
8,17:1
8,18:15
8,19:15
8,20:7
8,21:7
8,22:7
8,24:1
8,30:1
8,41:15
8,57:11
8,58:11
8,59:11
8,68:11
8,69:20
8,70:20
9,1:1
9,2:1
9,3:1
9,4:1
9,5:1
9,6:1
9,7:1
9,9:1
9,15:1
9,18:5
9,19:5
9,41:5
9,57:1
9,58:1
9,59:1
9,68:1
9,69:10
9,70:10
10,1:11
10,2:11
10,3:11
10,4:11
10,5:11
10,6:11
10,7:11
10,8:1
10,9:11
10,10:1
10,15:11
10,16:1
10,17:1
10,18:15
10,19:15
10,20:7
10,21:7
10,22:7
10,24:1
10,30:1
10,41:15
10,57:11
10,58:11
10,59:11
10,68:11
10,69:20
10,70:20
11,1:11
11,2:11
11,3:11
11,4:11
11,5:11
11,6:11
11,7:11
11,8:1
11,9:11
11,10:1
11,11:1
11,15:11
11,16:1
11,17:1
11,18:15
11,19:15
11,20:7
11,21:7
11,22:7
11,24:1
11,30:1
11,41:15
11,57:11
11,58:11
11,59:11
11,68:11
11,69:20
11,70:20
12,1:11
12,2:11
12,3:11
12,4:11
12,5:11
12,6:11
12,7:11
12,8:1
12,9:11
12,10:1
12,11:1
12,12:1
12,15:11
12,16:1
12,17:1
12,18:15
12,19:15
12,20:7
12,21:7
12,22:7
12,24:1
12,30:1
12,41:15
12,57:11
12,58:11
12,59:11
12,68:11
12,69:20
12,70:20
13,13:1
13,14:1
13,18:1
13,19:1
13,41:1
13,69:6
13,70:6
14,13:1
14,14:1
14,18:1
14,19:1
14,41:1
14,69:6
14,70:6
15,1:1
15,2:1
15,3:1
15,4:1
15,5:1
15,6:1
15,7:1
15,9:1
15,13:5
15,14:5
15,15:1
15,41:5
15,68:1
15,69:10
15,70:10
16,1:11
16,2:11
16,3:11
16,4:11
16,5:11
16,6:11
16,7:11
16,8:1
16,9:11
16,10:1
16,11:1
16,12:1
16,13:15
16,14:15
16,15:11
16,16:1
16,24:1
16,30:1
16,41:15
16,68:11
16,69:20
16,70:20
17,1:11
17,2:11
17,3:11
17,4:11
17,5:11
17,6:11
17,7:11
17,8:1
17,9:11
17,10:1
17,11:1
17,12:1
17,13:15
17,14:15
17,15:11
17,16:1
17,17:1
17,18:15
17,24:1
17,30:1
17,41:15
17,68:11
17,69:20
17,70:20
18,13:1
18,14:1
18,18:1
18,41:1
18,69:6
18,70:6
19,13:1
19,14:1
19,18:1
19,19:1
19,41:1
19,69:6
19,70:6
20,1:5
20,2:5
20,3:5
20,4:5
20,5:5
20,6:5
20,7:5
20,9:5
20,13:9
20,14:9
20,15:5
20,18:9
20,19:9
20,20:1
20,22:1
20,41:9
20,57:5
20,58:5
20,59:5
20,68:5
20,69:14
20,70:14
21,1:5
21,2:5
21,3:5
21,4:5
21,5:5
21,6:5
21,7:5
21,9:5
21,13:9
21,14:9
21,15:5
21,18:9
21,19:9
21,20:1
21,21:1
21,22:1
21,41:9
21,57:5
21,58:5
21,59:5
21,68:5
21,69:14
21,70:14
22,1:5
22,2:5
22,3:5
22,4:5
22,5:5
22,6:5
22,7:5
22,9:5
22,13:9
22,14:9
22,15:5
22,18:9
22,19:9
22,20:1
22,21:1
22,22:1
22,41:9
22,57:5
22,58:5
22,59:5
22,68:5
22,69:14
22,70:14
23,1:5
23,2:5
23,3:5
23,4:5
23,5:5
23,6:5
23,7:5
23,9:5
23,13:9
23,14:9
23,15:5
23,18:9
23,19:9
23,20:1
23,21:1
23,22:1
23,23:1
23,41:9
23,57:5
23,58:5
23,59:5
23,68:5
23,69:14
23,70:14
24,1:11
24,2:11
24,3:11
24,4:11
24,5:11
24,6:11
24,7:11
24,8:1
24,9:11
24,10:1
24,11:1
24,12:1
24,13:15
24,14:15
24,15:11
24,16:1
24,17:1
24,18:15
24,19:15
24,20:7
24,21:7
24,22:7
24,23:7
24,24:1
24,30:1
24,31:7
24,32:7
24,33:8
24,34:8
24,41:15
24,57:11
24,58:11
24,59:11
24,68:11
24,69:20
24,70:20
25,1:5
25,2:5
25,3:5
25,4:5
25,5:5
25,6:5
25,7:5
25,9:5
25,13:9
25,14:9
25,15:5
25,18:9
25,19:9
25,20:1
25,21:1
25,22:1
25,23:1
25,25:1
25,31:1
25,32:1
25,33:2
25,34:2
25,41:9
25,57:5
25,58:5
25,59:5
25,68:5
25,69:14
25,70:14
26,1:4
26,2:4
26,3:4
26,4:4
26,5:4
26,6:4
26,7:4
26,9:4
26,13:8
26,14:8
26,15:4
26,18:8
26,19:8
26,26:1
26,27:1
26,28:1
26,29:1
26,33:1
26,34:1
26,41:8
26,57:4
26,58:4
26,59:4
26,68:4
26,69:13
26,70:13
27,1:4
27,2:4
27,3:4
27,4:4
27,5:4
27,6:4
27,7:4
27,9:4
27,13:8
27,14:8
27,15:4
27,18:8
27,19:8
27,26:1
27,27:1
27,28:1
27,29:1
27,33:1
27,34:1
27,41:8
27,57:4
27,58:4
27,59:4
27,68:4
27,69:13
27,70:13
28,1:4
28,2:4
28,3:4
28,4:4
28,5:4
28,6:4
28,7:4
28,9:4
28,13:8
28,14:8
28,15:4
28,18:8
28,19:8
28,26:1
28,27:1
28,28:1
28,29:1
28,33:1
28,34:1
28,41:8
28,57:4
28,58:4
28,59:4
28,68:4
28,69:13
28,70:13
29,1:4
29,2:4
29,3:4
29,4:4
29,5:4
29,6:4
29,7:4
29,9:4
29,13:8
29,14:8
29,15:4
29,18:8
29,19:8
29,26:1
29,27:1
29,28:1
29,29:1
29,33:1
29,34:1
29,41:8
29,57:4
29,58:4
29,59:4
29,68:4
29,69:13
29,70:13
30,1:11
30,2:11
30,3:11
30,4:11
30,5:11
30,6:11
30,7:11
30,8:1
30,9:11
30,10:1
30,11:1
30,12:1
30,13:15
30,14:15
30,15:11
30,16:1
30,17:1
30,18:15
30,19:15
30,20:7
30,21:7
30,22:7
30,23:7
30,24:1
30,25:7
30,26:8
30,27:8
30,28:8
30,29:8
30,30:1
30,33:8
30,34:8
30,41:15
30,57:11
30,58:11
30,59:11
30,68:11
30,69:20
30,70:20
31,1:5
31,2:5
31,3:5
31,4:5
31,5:5
31,6:5
31,7:5
31,9:5
31,13:9
31,14:9
31,15:5
31,18:9
31,19:9
31,20:1
31,21:1
31,22:1
31,23:1
31,25:1
31,26:2
31,27:2
31,28:2
31,29:2
31,31:1
31,33:2
31,34:2
31,41:9
31,57:5
31,58:5
31,59:5
31,68:5
31,69:14
31,70:14
32,1:5
32,2:5
32,3:5
32,4:5
32,5:5
32,6:5
32,7:5
32,9:5
32,13:9
32,14:9
32,15:5
32,18:9
32,19:9
32,20:1
32,21:1
32,22:1
32,23:1
32,25:1
32,26:2
32,27:2
32,28:2
32,29:2
32,31:1
32,32:1
32,33:2
32,34:2
32,41:9
32,57:5
32,58:5
32,59:5
32,68:5
32,69:14
32,70:14
33,1:4
33,2:4
33,3:4
33,4:4
33,5:4
33,6:4
33,7:4
33,9:4
33,13:8
33,14:8
33,15:4
33,18:8
33,19:8
33,26:1
33,27:1
33,28:1
33,29:1
33,33:1
33,41:8
33,57:4
33,58:4
33,59:4
33,68:4
33,69:13
33,70:13
34,1:4
34,2:4
34,3:4
34,4:4
34,5:4
34,6:4
34,7:4
34,9:4
34,13:8
34,14:8
34,15:4
34,18:8
34,19:8
34,26:1
34,27:1
34,28:1
34,29:1
34,33:1
34,34:1
34,41:8
34,57:4
34,58:4
34,59:4
34,68:4
34,69:13
34,70:13
35,1:4
35,2:4
35,3:4
35,4:4
35,5:4
35,6:4
35,7:4
35,9:4
35,13:8
35,14:8
35,15:4
35,18:8
35,19:8
35,26:1
35,27:1
35,28:1
35,29:1
35,33:1
35,34:1
35,35:1
35,41:8
35,57:4
35,58:4
35,59:4
35,68:4
35,69:13
35,70:13
36,1:1
36,2:1
36,3:1
36,4:1
36,5:1
36,6:1
36,7:1
36,9:1
36,13:5
36,14:5
36,15:1
36,18:5
36,19:5
36,36:1
36,41:5
36,45:6
36,46:6
36,47:1
36,48:1
36,49:1
36,52:6
36,53:6
36,54:6
36,55:10
36,56:10
36,57:1
36,58:1
36,59:1
36,60:10
36,61:10
36,63:6
36,64:1
36,65:10
36,66:10
36,67:10
36,68:1
36,69:10
36,70:10
37,1:1
37,2:1
37,3:1
37,4:1
37,5:1
37,6:1
37,7:1
37,9:1
37,13:5
37,14:5
37,15:1
37,18:5
37,19:5
37,36:1
37,37:1
37,41:5
37,45:6
37,46:6
37,47:1
37,48:1
37,49:1
37,52:6
37,53:6
37,54:6
37,55:10
37,56:10
37,57:1
37,58:1
37,59:1
37,60:10
37,61:10
37,63:6
37,64:1
37,65:10
37,66:10
37,67:10
37,68:1
37,69:10
37,70:10
38,1:1
38,2:1
38,3:1
38,4:1
38,5:1
38,6:1
38,7:1
38,9:1
38,13:5
38,14:5
38,15:1
38,18:5
38,19:5
38,36:1
38,37:1
38,38:1
38,41:5
38,45:6
38,46:6
38,47:1
38,48:1
38,49:1
38,52:6
38,53:6
38,54:6
38,55:10
38,56:10
38,57:1
38,58:1
38,59:1
38,60:10
38,61:10
38,63:6
38,64:1
38,65:10
38,66:10
38,67:10
38,68:1
38,69:10
38,70:10
39,1:1
39,2:1
39,3:1
39,4:1
39,5:1
39,6:1
39,7:1
39,9:1
39,13:5
39,14:5
39,15:1
39,18:5
39,19:5
39,36:1
39,37:1
39,38:1
39,39:1
39,41:5
39,45:6
39,46:6
39,47:1
39,48:1
39,49:1
39,52:6
39,53:6
39,54:6
39,55:10
39,56:10
39,57:1
39,58:1
39,59:1
39,60:10
39,61:10
39,63:6
39,64:1
39,65:10
39,66:10
39,67:10
39,68:1
39,69:10
39,70:10
40,1:1
40,2:1
40,3:1
40,4:1
40,5:1
40,6:1
40,7:1
40,9:1
40,13:5
40,14:5
40,15:1
40,18:5
40,19:5
40,36:1
40,37:1
40,38:1
40,39:1
40,40:1
40,41:5
40,45:6
40,46:6
40,47:1
40,48:1
40,49:1
40,52:6
40,53:6
40,54:6
40,55:10
40,56:10
40,57:1
40,58:1
40,59:1
40,60:10
40,61:10
40,63:6
40,64:1
40,65:10
40,66:10
40,67:10
40,68:1
40,69:10
40,70:10
41,13:1
41,14:1
41,18:1
41,19:1
41,41:1
41,45:2
41,46:2
41,52:2
41,53:2
41,54:2
41,55:6
41,56:6
41,60:6
41,61:6
41,63:2
41,65:6
41,66:6
41,67:6
41,69:6
41,70:6
42,1:1
42,2:1
42,3:1
42,4:1
42,5:1
42,6:1
42,7:1
42,9:1
42,13:5
42,14:5
42,15:1
42,18:5
42,19:5
42,36:1
42,37:1
42,38:1
42,39:1
42,40:1
42,41:5
42,42:1
42,45:6
42,46:6
42,47:1
42,48:1
42,49:1
42,52:6
42,53:6
42,54:6
42,55:10
42,56:10
42,57:1
42,58:1
42,59:1
42,60:10
42,61:10
42,63:6
42,64:1
42,65:10
42,66:10
42,67:10
42,68:1
42,69:10
42,70:10
43,1:1
43,2:1
43,3:1
43,4:1
43,5:1
43,6:1
43,7:1
43,9:1
43,13:5
43,14:5
43,15:1
43,18:5
43,19:5
43,36:1
43,37:1
43,38:1
43,39:1
43,40:1
43,41:5
43,42:1
43,43:1
43,45:6
43,46:6
43,47:1
43,48:1
43,49:1
43,52:6
43,53:6
43,54:6
43,55:10
43,56:10
43,57:1
43,58:1
43,59:1
43,60:10
43,61:10
43,63:6
43,64:1
43,65:10
43,66:10
43,67:10
43,68:1
43,69:10
43,70:10
44,1:4
44,2:4
44,3:4
44,4:4
44,5:4
44,6:4
44,7:4
44,9:4
44,13:8
44,14:8
44,15:4
44,18:8
44,19:8
44,26:1
44,27:1
44,28:1
44,29:1
44,33:1
44,34:1
44,35:1
44,36:4
44,37:4
44,38:4
44,39:4
44,40:4
44,41:8
44,42:4
44,43:4
44,44:1
44,48:4
44,49:4
44,51:1
44,52:9
44,53:9
44,54:9
44,55:13
44,56:13
44,57:4
44,58:4
44,59:4
44,60:13
44,61:13
44,62:1
44,63:9
44,64:4
44,65:13
44,66:13
44,67:13
44,68:4
44,69:13
44,70:13
45,45:1
45,52:1
45,53:1
45,54:1
45,55:5
45,56:5
45,60:5
45,61:5
45,63:1
45,65:5
45,66:5
45,67:5
45,69:5
45,70:5
46,45:1
46,46:1
46,52:1
46,53:1
46,54:1
46,55:5
46,56:5
46,60:5
46,61:5
46,63:1
46,65:5
46,66:5
46,67:5
46,69:5
46,70:5
47,1:1
47,2:1
47,3:1
47,4:1
47,5:1
47,6:1
47,7:1
47,9:1
47,13:5
47,14:5
47,15:1
47,18:5
47,19:5
47,36:1
47,37:1
47,38:1
47,39:1
47,40:1
47,41:5
47,42:1
47,43:1
47,45:6
47,46:6
47,47:1
47,48:1
47,49:1
47,52:6
47,53:6
47,54:6
47,55:10
47,56:10
47,57:1
47,58:1
47,59:1
47,60:10
47,61:10
47,63:6
47,64:1
47,65:10
47,66:10
47,67:10
47,68:1
47,69:10
47,70:10
48,1:1
48,2:1
48,3:1
48,4:1
48,5:1
48,6:1
48,7:1
48,9:1
48,13:5
48,14:5
48,15:1
48,18:5
48,19:5
48,36:1
48,37:1
48,38:1
48,39:1
48,40:1
48,41:5
48,42:1
48,43:1
48,45:6
48,46:6
48,47:1
48,48:1
48,52:6
48,53:6
48,54:6
48,55:10
48,56:10
48,57:1
48,58:1
48,59:1
48,60:10
48,61:10
48,63:6
48,64:1
48,65:10
48,66:10
48,67:10
48,68:1
48,69:10
48,70:10
49,1:1
49,2:1
49,3:1
49,4:1
49,5:1
49,6:1
49,7:1
49,9:1
49,13:5
49,14:5
49,15:1
49,18:5
49,19:5
49,36:1
49,37:1
49,38:1
49,39:1
49,40:1
49,41:5
49,42:1
49,43:1
49,45:6
49,46:6
49,47:1
49,48:1
49,49:1
49,52:6
49,53:6
49,54:6
49,55:10
49,56:10
49,57:1
49,58:1
49,59:1
49,60:10
49,61:10
49,63:6
49,64:1
49,65:10
49,66:10
49,67:10
49,68:1
49,69:10
49,70:10
50,50:1
50,55:1
50,56:1
50,60:1
50,61:1
50,65:1
50,66:1
50,67:1
50,69:1
50,70:1
51,1:4
51,2:4
51,3:4
51,4:4
51,5:4
51,6:4
51,7:4
51,9:4
51,13:8
51,14:8
51,15:4
51,18:8
51,19:8
51,26:1
51,27:1
51,28:1
51,29:1
51,33:1
51,34:1
51,35:1
51,36:4
51,37:4
51,38:4
51,39:4
51,40:4
51,41:8
51,42:4
51,43:4
51,44:1
51,45:9
51,46:9
51,47:4
51,48:4
51,49:4
51,50:13
51,51:1
51,53:9
51,56:13
51,57:4
51,58:4
51,59:4
51,60:13
51,61:13
51,62:1
51,63:9
51,64:4
51,65:13
51,66:13
51,67:13
51,68:4
51,69:13
51,70:13
52,45:1
52,46:1
52,50:5
52,52:1
52,53:1
52,56:5
52,60:5
52,61:5
52,63:1
52,65:5
52,66:5
52,67:5
52,69:5
52,70:5
53,45:1
53,46:1
53,50:5
53,52:1
53,53:1
53,56:5
53,60:5
53,61:5
53,63:1
53,65:5
53,66:5
53,67:5
53,69:5
53,70:5
54,45:1
54,46:1
54,50:5
54,52:1
54,53:1
54,54:1
54,56:5
54,60:5
54,61:5
54,63:1
54,65:5
54,66:5
54,67:5
54,69:5
54,70:5
55,50:1
55,55:1
55,56:1
55,60:1
55,61:1
55,65:1
55,66:1
55,67:1
55,69:1
55,70:1
56,50:1
56,55:1
56,56:1
56,60:1
56,61:1
56,65:1
56,66:1
56,67:1
56,69:1
56,70:1
57,1:1
57,2:1
57,3:1
57,4:1
57,5:1
57,6:1
57,7:1
57,9:1
57,13:5
57,14:5
57,15:1
57,18:5
57,19:5
57,36:1
57,37:1
57,38:1
57,39:1
57,40:1
57,41:5
57,42:1
57,43:1
57,45:6
57,46:6
57,47:1
57,48:1
57,49:1
57,50:10
57,52:6
57,53:6
57,54:6
57,55:10
57,56:10
57,57:1
57,61:10
57,63:6
57,64:1
57,65:10
57,66:10
57,67:10
57,68:1
57,69:10
57,70:10
58,1:1
58,2:1
58,3:1
58,4:1
58,5:1
58,6:1
58,7:1
58,9:1
58,13:5
58,14:5
58,15:1
58,18:5
58,19:5
58,36:1
58,37:1
58,38:1
58,39:1
58,40:1
58,41:5
58,42:1
58,43:1
58,45:6
58,46:6
58,47:1
58,48:1
58,49:1
58,50:10
58,52:6
58,53:6
58,54:6
58,55:10
58,56:10
58,57:1
58,58:1
58,61:10
58,63:6
58,64:1
58,65:10
58,66:10
58,67:10
58,68:1
58,69:10
58,70:10
59,1:1
59,2:1
59,3:1
59,4:1
59,5:1
59,6:1
59,7:1
59,9:1
59,13:5
59,14:5
59,15:1
59,18:5
59,19:5
59,36:1
59,37:1
59,38:1
59,39:1
59,40:1
59,41:5
59,42:1
59,43:1
59,45:6
59,46:6
59,47:1
59,48:1
59,49:1
59,50:10
59,52:6
59,53:6
59,54:6
59,55:10
59,56:10
59,57:1
59,58:1
59,59:1
59,61:10
59,63:6
59,64:1
59,65:10
59,66:10
59,67:10
59,68:1
59,69:10
59,70:10
60,50:1
60,55:1
60,56:1
60,60:1
60,61:1
60,65:1
60,66:1
60,67:1
60,69:1
60,70:1
61,50:1
61,55:1
61,56:1
61,60:1
61,61:1
61,66:1
61,67:1
61,69:1
61,70:1
62,1:4
62,2:4
62,3:4
62,4:4
62,5:4
62,6:4
62,7:4
62,9:4
62,13:8
62,14:8
62,15:4
62,18:8
62,19:8
62,26:1
62,27:1
62,28:1
62,29:1
62,33:1
62,34:1
62,35:1
62,36:4
62,37:4
62,38:4
62,39:4
62,40:4
62,41:8
62,42:4
62,43:4
62,44:1
62,45:9
62,46:9
62,47:4
62,48:4
62,49:4
62,50:13
62,51:1
62,52:9
62,53:9
62,54:9
62,55:13
62,56:13
62,57:4
62,58:4
62,59:4
62,60:13
62,61:13
62,62:1
62,68:4
62,69:13
62,70:13
63,45:1
63,46:1
63,50:5
63,52:1
63,53:1
63,54:1
63,55:5
63,56:5
63,60:5
63,61:5
63,63:1
63,69:5
63,70:5
64,1:1
64,2:1
64,3:1
64,4:1
64,5:1
64,6:1
64,7:1
64,9:1
64,13:5
64,14:5
64,15:1
64,18:5
64,19:5
64,36:1
64,37:1
64,38:1
64,39:1
64,40:1
64,41:5
64,42:1
64,43:1
64,45:6
64,46:6
64,47:1
64,48:1
64,49:1
64,50:10
64,52:6
64,53:6
64,54:6
64,55:10
64,56:10
64,57:1
64,58:1
64,59:1
64,60:10
64,61:10
64,63:6
64,64:1
64,68:1
64,69:10
64,70:10
65,50:1
65,55:1
65,56:1
65,60:1
65,61:1
65,65:1
65,66:1
65,67:1
65,69:1
65,70:1
66,50:1
66,55:1
66,56:1
66,60:1
66,61:1
66,65:1
66,66:1
66,67:1
66,69:1
66,70:1
67,50:1
67,55:1
67,56:1
67,60:1
67,61:1
67,65:1
67,66:1
67,67:1
67,69:1
67,70:1
68,1:1
68,2:1
68,3:1
68,4:1
68,5:1
68,6:1
68,7:1
68,9:1
68,13:5
68,14:5
68,15:1
68,18:5
68,19:5
68,36:1
68,37:1
68,38:1
68,39:1
68,40:1
68,41:5
68,42:1
68,43:1
68,45:6
68,46:6
68,47:1
68,48:1
68,49:1
68,50:10
68,52:6
68,53:6
68,54:6
68,55:10
68,56:10
68,57:1
68,58:1
68,59:1
68,60:10
68,61:10
68,63:6
68,64:1
68,65:10
68,66:10
68,67:10
68,68:1
68,69:10
68,70:10
69,50:1
69,55:1
69,56:1
69,60:1
69,61:1
69,65:1
69,66:1
69,67:1
69,69:1
69,70:1
70,50:1
70,55:1
70,56:1
70,60:1
70,61:1
70,65:1
70,66:1
70,67:1
70,69:1
70,70:1

<end>

<optimal SALBP-1 value>
8


<rand seed>
467321153

